
        $ From http://www.csplib.org/Problems/prob009/data/helmut.pdf
        $ Problem number 140
        $ Sequence length : 25
        language ESSENCE' 1.0
        letting sizemaster be 454
        letting sizes be sequence(1,2,11,17,29,34,35,46,48,51,53,55,63,69,79,87,88,91,109,134,136,143,150,161,184)
        